DIMACS_lns/graph-1000-216.col
p edge 1000 1796
e 2 437
e 2 997
e 2 71
e 2 102
e 2 842
e 2 726
e 2 277
e 2 61
e 2 222
e 3 418
e 3 117
e 3 187
e 3 685
e 3 391
e 4 257
e 4 290
e 4 240
e 5 282
e 5 403
e 5 708
e 5 626
e 5 233
e 5 143
e 5 135
e 5 815
e 5 590
e 6 725
e 6 67
e 6 641
e 6 450
e 7 585
e 7 620
e 7 533
e 7 289
e 7 515
e 8 64
e 8 330
e 8 647
e 8 711
e 8 655
e 8 574
e 8 925
e 9 807
e 9 927
e 9 780
e 10 156
e 10 164
e 10 415
e 11 478
e 11 588
e 11 771
e 11 833
e 11 888
e 12 862
e 12 841
e 12 131
e 12 383
e 12 468
e 13 433
e 13 177
e 13 824
e 14 922
e 14 549
e 14 190
e 14 747
e 14 820
e 15 839
e 15 214
e 15 539
e 15 442
e 15 237
e 15 742
e 15 312
e 16 153
e 16 267
e 16 516
e 16 272
e 17 221
e 17 388
e 17 852
e 17 983
e 17 974
e 18 390
e 18 237
e 18 580
e 18 375
e 19 55
e 19 69
e 19 38
e 19 979
e 19 784
e 19 876
e 20 125
e 20 374
e 20 782
e 20 494
e 20 117
e 21 124
e 21 412
e 21 654
e 21 694
e 22 90
e 22 330
e 22 221
e 22 685
e 22 390
e 22 273
e 22 348
e 23 316
e 23 662
e 23 845
e 23 304
e 24 689
e 24 379
e 24 147
e 25 989
e 25 86
e 25 594
e 26 501
e 26 504
e 26 842
e 26 965
e 26 757
e 28 139
e 28 942
e 28 328
e 28 286
e 29 42
e 29 608
e 29 941
e 29 529
e 29 772
e 30 251
e 30 296
e 30 555
e 31 675
e 31 694
e 31 655
e 33 334
e 33 53
e 33 700
e 33 669
e 34 443
e 34 225
e 34 753
e 34 260
e 35 63
e 35 824
e 35 325
e 35 287
e 35 390
e 36 542
e 36 994
e 36 457
e 36 957
e 38 498
e 38 195
e 38 922
e 38 118
e 38 572
e 39 461
e 39 493
e 39 682
e 41 357
e 41 390
e 41 713
e 42 363
e 42 582
e 42 508
e 42 550
e 44 575
e 44 784
e 44 244
e 47 317
e 47 612
e 47 826
e 48 965
e 48 160
e 48 881
e 49 915
e 49 179
e 49 494
e 49 955
e 49 86
e 50 875
e 50 901
e 50 291
e 50 781
e 50 508
e 50 997
e 50 313
e 51 121
e 51 967
e 51 972
e 51 413
e 51 342
e 51 187
e 53 748
e 53 516
e 55 634
e 55 699
e 55 552
e 55 139
e 55 359
e 55 305
e 55 563
e 55 157
e 55 323
e 55 502
e 55 433
e 56 797
e 56 592
e 56 922
e 56 809
e 57 682
e 57 617
e 57 626
e 61 832
e 61 693
e 62 1000
e 62 792
e 62 145
e 62 696
e 62 495
e 62 620
e 63 266
e 63 70
e 63 894
e 63 911
e 64 665
e 64 980
e 64 523
e 64 368
e 64 822
e 64 376
e 64 847
e 66 252
e 66 448
e 66 89
e 66 717
e 66 532
e 66 716
e 67 677
e 67 607
e 67 707
e 67 366
e 67 630
e 69 709
e 69 800
e 70 815
e 70 97
e 70 375
e 70 811
e 70 395
e 70 251
e 71 539
e 71 412
e 71 543
e 71 936
e 71 604
e 72 843
e 72 829
e 72 935
e 73 639
e 73 336
e 73 643
e 74 322
e 74 200
e 74 373
e 76 279
e 76 199
e 76 138
e 76 708
e 76 814
e 76 630
e 77 667
e 77 492
e 77 704
e 77 816
e 77 350
e 77 178
e 79 519
e 79 204
e 79 811
e 81 843
e 81 949
e 81 689
e 81 726
e 81 827
e 83 819
e 83 963
e 83 875
e 83 272
e 83 978
e 83 884
e 84 859
e 84 756
e 84 286
e 84 760
e 85 494
e 85 403
e 85 967
e 86 514
e 86 831
e 86 936
e 89 602
e 89 716
e 89 412
e 90 124
e 90 439
e 90 569
e 90 668
e 90 490
e 90 904
e 90 662
e 92 993
e 92 403
e 92 719
e 92 360
e 92 724
e 93 215
e 93 195
e 93 998
e 94 189
e 94 655
e 94 765
e 94 494
e 95 922
e 95 812
e 95 402
e 95 119
e 95 857
e 95 101
e 97 925
e 97 823
e 97 373
e 98 583
e 98 599
e 98 353
e 98 696
e 99 561
e 99 111
e 99 575
e 99 201
e 99 483
e 99 658
e 99 354
e 99 296
e 100 309
e 100 524
e 100 805
e 100 978
e 100 175
e 100 142
e 100 407
e 100 572
e 100 257
e 101 874
e 101 992
e 101 974
e 101 335
e 102 213
e 102 106
e 102 789
e 102 249
e 103 329
e 103 326
e 103 682
e 103 456
e 103 985
e 104 498
e 104 551
e 104 124
e 106 140
e 106 362
e 106 393
e 106 606
e 107 631
e 107 959
e 107 424
e 107 293
e 107 722
e 107 665
e 109 911
e 109 453
e 109 696
e 109 812
e 110 272
e 110 689
e 110 161
e 110 233
e 110 885
e 110 179
e 111 272
e 111 421
e 111 231
e 113 792
e 113 866
e 113 394
e 113 463
e 117 262
e 117 877
e 117 682
e 118 385
e 118 464
e 119 309
e 119 405
e 119 353
e 119 601
e 120 306
e 120 678
e 120 164
e 120 212
e 121 419
e 121 837
e 122 194
e 122 558
e 122 313
e 122 979
e 123 731
e 123 441
e 123 547
e 124 547
e 124 913
e 124 555
e 125 901
e 125 217
e 125 158
e 125 924
e 126 543
e 126 350
e 126 986
e 126 683
e 129 482
e 129 569
e 129 551
e 129 912
e 129 871
e 129 553
e 129 314
e 130 813
e 130 993
e 130 828
e 130 525
e 131 608
e 131 403
e 131 539
e 131 213
e 132 422
e 132 844
e 132 913
e 132 700
e 132 381
e 132 583
e 132 994
e 133 931
e 133 483
e 133 570
e 133 324
e 133 427
e 134 196
e 134 754
e 134 961
e 134 503
e 134 606
e 135 685
e 135 792
e 136 699
e 136 385
e 136 891
e 138 891
e 138 963
e 138 703
e 139 206
e 139 862
e 139 160
e 140 347
e 140 261
e 140 955
e 140 906
e 140 467
e 140 421
e 140 665
e 140 442
e 141 614
e 141 509
e 141 422
e 142 632
e 142 693
e 143 656
e 143 957
e 143 967
e 144 253
e 144 818
e 144 683
e 144 779
e 145 230
e 145 475
e 146 760
e 146 917
e 146 845
e 146 879
e 147 658
e 147 712
e 147 865
e 147 626
e 147 331
e 147 523
e 149 497
e 149 873
e 149 617
e 151 610
e 151 772
e 151 778
e 152 869
e 152 999
e 152 609
e 153 688
e 153 254
e 154 314
e 154 383
e 154 842
e 156 812
e 156 588
e 156 325
e 156 877
e 156 440
e 156 200
e 157 999
e 157 817
e 157 909
e 157 937
e 157 730
e 158 395
e 158 215
e 158 296
e 158 642
e 158 206
e 159 331
e 159 641
e 159 986
e 159 510
e 160 624
e 160 826
e 160 962
e 160 568
e 160 501
e 161 911
e 161 576
e 161 709
e 163 812
e 163 607
e 163 181
e 163 553
e 164 820
e 164 985
e 164 999
e 164 277
e 166 459
e 166 310
e 166 270
e 166 981
e 169 977
e 169 846
e 169 761
e 169 351
e 174 664
e 174 360
e 174 530
e 175 685
e 175 426
e 177 231
e 177 243
e 177 583
e 177 701
e 177 654
e 177 712
e 178 416
e 178 829
e 178 846
e 178 897
e 178 482
e 179 618
e 179 957
e 179 891
e 181 304
e 181 521
e 181 237
e 183 234
e 183 821
e 183 245
e 185 770
e 185 260
e 185 620
e 185 445
e 185 465
e 185 388
e 187 821
e 187 663
e 187 310
e 187 951
e 187 200
e 187 516
e 187 386
e 187 925
e 188 706
e 188 352
e 188 372
e 188 832
e 189 937
e 189 878
e 189 468
e 189 578
e 189 599
e 189 334
e 189 211
e 190 816
e 190 292
e 190 426
e 191 995
e 191 673
e 191 399
e 191 298
e 192 323
e 192 643
e 192 367
e 193 465
e 193 956
e 193 598
e 193 797
e 193 503
e 193 651
e 194 394
e 194 513
e 194 302
e 194 318
e 195 631
e 195 854
e 195 515
e 196 401
e 196 314
e 196 594
e 199 222
e 199 418
e 199 570
e 199 345
e 200 642
e 200 632
e 200 251
e 201 258
e 201 730
e 201 408
e 201 588
e 202 304
e 202 568
e 202 731
e 202 495
e 202 873
e 202 662
e 204 955
e 204 494
e 204 720
e 204 702
e 205 854
e 205 326
e 205 877
e 205 857
e 206 805
e 206 564
e 206 973
e 206 464
e 206 651
e 208 621
e 208 811
e 208 765
e 211 909
e 211 304
e 211 475
e 212 524
e 212 549
e 212 448
e 213 316
e 213 550
e 213 243
e 214 234
e 214 658
e 215 841
e 215 799
e 217 702
e 217 239
e 217 472
e 218 742
e 218 317
e 218 623
e 218 746
e 218 386
e 218 747
e 219 508
e 219 837
e 219 980
e 221 314
e 222 893
e 222 583
e 222 465
e 222 995
e 222 226
e 223 484
e 223 284
e 223 890
e 225 828
e 225 712
e 226 857
e 226 808
e 227 553
e 227 466
e 227 318
e 228 765
e 228 976
e 228 501
e 228 315
e 230 305
e 230 461
e 231 488
e 231 245
e 231 630
e 233 934
e 233 360
e 233 287
e 233 725
e 233 710
e 234 649
e 234 393
e 235 527
e 235 680
e 235 903
e 236 292
e 236 997
e 236 549
e 237 613
e 237 316
e 237 987
e 237 648
e 237 293
e 238 993
e 238 817
e 238 833
e 238 946
e 238 639
e 238 385
e 238 305
e 239 351
e 239 944
e 239 665
e 239 985
e 240 267
e 240 805
e 240 797
e 243 590
e 243 681
e 243 931
e 244 743
e 244 390
e 244 601
e 245 395
e 245 407
e 245 483
e 245 496
e 247 290
e 247 450
e 247 812
e 247 647
e 247 666
e 247 396
e 249 948
e 249 917
e 250 269
e 250 812
e 250 667
e 250 847
e 251 451
e 251 742
e 251 350
e 251 930
e 251 908
e 252 315
e 252 414
e 253 255
e 253 1000
e 254 941
e 254 475
e 254 892
e 254 646
e 254 886
e 254 774
e 254 453
e 254 609
e 254 578
e 254 983
e 255 964
e 255 726
e 255 286
e 257 442
e 257 323
e 257 823
e 258 849
e 258 612
e 258 442
e 258 620
e 260 766
e 260 479
e 260 736
e 260 688
e 261 277
e 261 290
e 261 724
e 261 791
e 262 558
e 262 655
e 263 439
e 263 284
e 263 965
e 263 825
e 263 339
e 265 388
e 265 855
e 265 421
e 265 994
e 265 552
e 265 314
e 266 395
e 266 606
e 266 578
e 266 885
e 267 849
e 267 816
e 267 634
e 267 976
e 267 611
e 267 935
e 267 859
e 269 988
e 269 618
e 269 827
e 270 429
e 270 545
e 270 890
e 270 961
e 271 931
e 271 559
e 271 640
e 271 460
e 271 862
e 271 912
e 272 721
e 272 643
e 273 312
e 273 503
e 273 801
e 273 510
e 274 339
e 274 554
e 274 946
e 274 549
e 277 976
e 277 357
e 277 826
e 278 419
e 278 299
e 278 456
e 278 517
e 278 782
e 278 896
e 279 627
e 279 904
e 279 851
e 282 488
e 282 299
e 283 810
e 283 993
e 283 600
e 283 532
e 284 383
e 284 800
e 284 925
e 284 639
e 286 908
e 287 844
e 287 782
e 287 746
e 289 321
e 289 830
e 289 348
e 289 811
e 289 456
e 290 430
e 291 805
e 291 504
e 291 410
e 291 944
e 292 837
e 292 493
e 292 403
e 292 841
e 293 421
e 293 689
e 293 429
e 295 980
e 295 297
e 295 721
e 296 541
e 296 912
e 296 580
e 296 723
e 297 709
e 297 385
e 297 951
e 297 936
e 297 521
e 297 608
e 298 324
e 298 549
e 298 334
e 298 431
e 298 658
e 298 976
e 299 809
e 299 542
e 299 825
e 300 854
e 300 463
e 300 881
e 300 827
e 300 383
e 300 942
e 301 870
e 301 335
e 301 669
e 301 708
e 302 554
e 302 532
e 304 935
e 304 731
e 304 663
e 304 779
e 305 875
e 305 704
e 306 437
e 306 708
e 306 399
e 306 947
e 306 640
e 307 726
e 307 730
e 307 667
e 307 653
e 309 987
e 309 613
e 309 972
e 309 561
e 309 420
e 310 901
e 310 985
e 311 351
e 311 991
e 311 357
e 311 322
e 311 379
e 311 944
e 311 501
e 312 956
e 312 317
e 312 805
e 312 988
e 312 730
e 313 884
e 313 947
e 314 592
e 314 439
e 315 893
e 315 499
e 315 364
e 316 895
e 316 872
e 317 490
e 317 753
e 317 416
e 318 404
e 318 484
e 318 901
e 318 518
e 318 413
e 318 767
e 320 504
e 320 882
e 320 336
e 321 991
e 321 673
e 321 656
e 322 935
e 322 693
e 322 647
e 323 652
e 323 568
e 323 542
e 323 483
e 323 808
e 323 510
e 324 935
e 325 860
e 325 331
e 325 461
e 325 650
e 326 422
e 328 638
e 328 790
e 328 444
e 328 703
e 328 387
e 328 964
e 329 506
e 329 736
e 330 808
e 330 801
e 330 833
e 330 463
e 331 488
e 331 580
e 331 645
e 331 589
e 334 564
e 334 651
e 335 447
e 335 743
e 335 362
e 336 911
e 336 791
e 336 515
e 336 444
e 337 359
e 337 828
e 337 993
e 337 374
e 337 662
e 339 731
e 339 365
e 339 774
e 340 810
e 340 420
e 340 818
e 340 820
e 340 651
e 341 514
e 341 611
e 341 388
e 342 451
e 342 585
e 342 682
e 342 948
e 343 908
e 343 668
e 343 383
e 343 530
e 343 508
e 345 454
e 345 430
e 345 746
e 345 687
e 346 379
e 346 567
e 346 582
e 347 451
e 347 972
e 348 807
e 348 892
e 349 746
e 349 754
e 349 854
e 349 707
e 349 365
e 350 539
e 350 996
e 350 440
e 351 390
e 351 421
e 351 647
e 351 559
e 352 448
e 352 387
e 352 909
e 352 604
e 352 483
e 353 808
e 353 407
e 353 832
e 354 651
e 354 681
e 354 886
e 354 595
e 357 627
e 357 828
e 359 420
e 359 960
e 361 716
e 361 812
e 361 373
e 362 757
e 363 650
e 363 790
e 364 527
e 364 528
e 365 977
e 365 894
e 365 828
e 365 652
e 365 965
e 365 568
e 366 378
e 366 821
e 367 494
e 367 440
e 367 664
e 367 472
e 368 757
e 368 580
e 369 492
e 369 451
e 369 533
e 369 459
e 370 972
e 370 451
e 370 729
e 370 651
e 370 676
e 372 903
e 372 632
e 373 844
e 373 499
e 373 375
e 373 483
e 373 790
e 373 564
e 374 801
e 374 645
e 374 687
e 375 977
e 375 418
e 375 875
e 375 962
e 376 728
e 376 648
e 376 979
e 376 814
e 378 831
e 378 878
e 379 770
e 379 427
e 379 874
e 381 972
e 381 908
e 381 999
e 383 404
e 384 721
e 384 963
e 384 425
e 385 422
e 385 728
e 385 557
e 386 955
e 386 891
e 387 712
e 388 518
e 388 539
e 390 946
e 390 531
e 390 958
e 391 682
e 391 757
e 391 506
e 392 677
e 392 837
e 392 575
e 393 981
e 394 567
e 395 892
e 395 558
e 396 996
e 396 438
e 396 1000
e 397 651
e 397 502
e 397 917
e 398 676
e 398 404
e 398 725
e 398 663
e 399 951
e 399 783
e 399 702
e 399 602
e 401 540
e 401 790
e 402 418
e 402 814
e 402 896
e 403 444
e 403 449
e 403 426
e 403 496
e 404 502
e 404 893
e 404 529
e 404 602
e 405 760
e 405 748
e 405 439
e 405 774
e 407 513
e 407 437
e 408 531
e 408 855
e 408 543
e 410 429
e 410 997
e 412 474
e 412 420
e 413 649
e 413 503
e 414 754
e 414 824
e 415 652
e 415 463
e 415 646
e 415 878
e 415 532
e 416 917
e 416 517
e 416 524
e 418 594
e 418 549
e 418 663
e 419 570
e 420 800
e 420 475
e 420 550
e 421 555
e 421 800
e 421 699
e 422 653
e 422 616
e 424 604
e 424 922
e 425 906
e 425 437
e 426 843
e 427 801
e 427 991
e 427 439
e 427 549
e 427 825
e 428 876
e 428 944
e 428 638
e 429 701
e 429 433
e 429 830
e 430 937
e 430 984
e 431 438
e 431 799
e 431 450
e 431 503
e 433 608
e 434 528
e 434 559
e 434 502
e 434 465
e 434 841
e 437 805
e 438 886
e 438 578
e 438 751
e 438 601
e 439 962
e 439 772
e 439 617
e 439 675
e 440 742
e 440 959
e 441 958
e 441 793
e 443 498
e 443 711
e 443 627
e 443 677
e 445 554
e 445 472
e 445 749
e 447 973
e 447 994
e 448 493
e 448 994
e 448 701
e 448 814
e 448 481
e 448 570
e 449 963
e 449 492
e 449 894
e 450 527
e 450 495
e 453 728
e 453 784
e 453 994
e 453 702
e 454 871
e 454 851
e 456 696
e 457 783
e 457 474
e 457 574
e 458 912
e 458 879
e 458 700
e 458 627
e 459 987
e 459 811
e 460 865
e 460 600
e 460 904
e 460 835
e 461 712
e 461 653
e 462 492
e 462 751
e 462 869
e 463 860
e 464 960
e 466 731
e 466 655
e 467 807
e 467 866
e 467 885
e 468 903
e 468 566
e 472 986
e 472 944
e 472 832
e 474 909
e 474 817
e 475 877
e 475 499
e 478 567
e 478 719
e 479 835
e 479 576
e 481 747
e 481 658
e 481 501
e 482 738
e 483 956
e 483 801
e 483 713
e 484 873
e 484 555
e 484 493
e 488 820
e 488 854
e 488 823
e 490 738
e 490 539
e 492 937
e 492 580
e 492 602
e 493 555
e 494 924
e 494 935
e 494 673
e 496 550
e 496 575
e 497 833
e 497 638
e 497 516
e 497 818
e 498 725
e 498 953
e 499 789
e 501 655
e 501 575
e 502 563
e 503 658
e 503 812
e 503 996
e 504 518
e 504 531
e 504 639
e 504 848
e 504 884
e 506 710
e 506 941
e 508 720
e 509 725
e 509 711
e 510 718
e 510 765
e 513 928
e 514 620
e 515 1000
e 515 847
e 515 700
e 515 962
e 515 567
e 517 726
e 517 566
e 517 994
e 518 857
e 518 973
e 519 814
e 519 639
e 521 830
e 521 716
e 521 576
e 522 931
e 522 871
e 522 846
e 523 897
e 524 678
e 525 864
e 525 709
e 527 842
e 528 917
e 528 956
e 528 764
e 529 612
e 530 956
e 531 582
e 531 821
e 531 595
e 531 930
e 532 849
e 532 832
e 532 821
e 532 884
e 533 668
e 533 559
e 539 810
e 540 633
e 540 819
e 540 845
e 540 607
e 541 617
e 541 994
e 543 901
e 543 992
e 545 749
e 545 894
e 545 633
e 547 634
e 547 623
e 547 645
e 547 658
e 549 742
e 549 583
e 549 884
e 549 787
e 550 860
e 551 864
e 551 828
e 552 704
e 552 782
e 554 645
e 554 668
e 555 964
e 555 643
e 557 589
e 557 601
e 557 851
e 557 574
e 557 767
e 558 721
e 559 620
e 559 764
e 561 985
e 561 902
e 561 797
e 561 876
e 563 925
e 563 928
e 564 894
e 566 877
e 566 843
e 566 998
e 568 826
e 568 724
e 568 904
e 569 817
e 570 607
e 572 820
e 574 857
e 575 811
e 576 633
e 576 877
e 576 780
e 578 878
e 578 722
e 578 738
e 580 749
e 580 936
e 582 793
e 583 992
e 585 667
e 585 649
e 589 699
e 590 621
e 592 866
e 594 851
e 594 693
e 594 912
e 594 783
e 594 852
e 594 791
e 595 988
e 595 925
e 598 949
e 598 793
e 598 651
e 598 998
e 599 879
e 600 623
e 600 819
e 600 821
e 601 884
e 601 680
e 601 653
e 602 811
e 604 650
e 606 888
e 607 725
e 608 992
e 608 784
e 608 872
e 609 885
e 610 850
e 610 915
e 610 751
e 611 839
e 611 853
e 612 848
e 612 879
e 612 638
e 613 721
e 614 642
e 614 676
e 616 850
e 616 913
e 618 648
e 618 628
e 620 780
e 621 787
e 621 664
e 623 900
e 623 992
e 624 643
e 624 946
e 626 891
e 627 934
e 627 669
e 627 640
e 628 861
e 628 761
e 630 706
e 631 706
e 632 747
e 636 779
e 636 869
e 636 831
e 637 742
e 637 878
e 637 819
e 637 839
e 637 814
e 638 918
e 638 852
e 640 770
e 641 992
e 642 784
e 645 650
e 645 953
e 645 664
e 646 742
e 647 680
e 648 927
e 651 696
e 651 848
e 651 823
e 652 680
e 653 749
e 653 962
e 654 799
e 655 984
e 656 809
e 662 886
e 663 895
e 664 928
e 665 962
e 666 829
e 666 809
e 667 905
e 667 723
e 667 751
e 668 745
e 668 728
e 669 881
e 673 847
e 675 905
e 676 781
e 676 718
e 676 937
e 677 888
e 678 843
e 678 770
e 681 998
e 682 704
e 682 958
e 682 789
e 683 790
e 683 888
e 683 719
e 685 829
e 685 828
e 685 767
e 685 842
e 687 965
e 687 974
e 687 737
e 688 895
e 688 924
e 689 902
e 689 815
e 693 764
e 694 778
e 696 828
e 696 754
e 698 720
e 698 835
e 698 806
e 698 941
e 699 703
e 701 781
e 701 896
e 701 805
e 702 815
e 703 942
e 703 905
e 706 976
e 707 888
e 708 813
e 708 787
e 709 934
e 710 757
e 711 900
e 713 944
e 716 801
e 717 875
e 717 807
e 718 987
e 718 949
e 719 972
e 719 757
e 721 911
e 721 946
e 722 915
e 723 936
e 724 980
e 725 730
e 725 958
e 726 1000
e 728 974
e 728 779
e 728 823
e 729 917
e 729 839
e 730 853
e 730 936
e 730 884
e 730 778
e 730 737
e 731 927
e 736 747
e 737 992
e 737 998
e 738 1000
e 738 931
e 738 844
e 743 870
e 743 960
e 745 892
e 745 942
e 746 957
e 746 961
e 746 973
e 746 979
e 747 849
e 748 928
e 748 886
e 748 881
e 749 857
e 753 756
e 753 843
e 756 988
e 757 995
e 757 789
e 761 978
e 764 881
e 764 824
e 765 965
e 765 847
e 766 999
e 766 852
e 767 828
e 767 812
e 771 948
e 771 780
e 774 994
e 778 873
e 781 891
e 782 865
e 782 928
e 784 811
e 787 801
e 787 955
e 787 904
e 791 849
e 791 890
e 793 913
e 801 958
e 801 853
e 806 953
e 806 832
e 806 861
e 807 918
e 808 992
e 809 958
e 810 850
e 813 882
e 816 841
e 816 872
e 822 959
e 822 948
e 823 896
e 824 879
e 825 930
e 825 861
e 827 973
e 828 890
e 828 949
e 829 906
e 830 967
e 832 917
e 837 934
e 837 853
e 839 897
e 842 912
e 847 861
e 850 989
e 854 957
e 855 961
e 855 959
e 859 947
e 859 882
e 860 937
e 864 998
e 865 972
e 865 989
e 870 912
e 871 955
e 873 875
e 873 984
e 874 973
e 875 981
e 881 949
e 882 904
e 885 894
e 885 995
e 886 994
e 900 989
e 902 980
e 905 986
e 909 983
e 915 947
e 918 955
e 930 960
e 947 979
e 961 967
e 964 976
e 974 983
e 987 991
