txt_Ins/graph-1000-216.txt
n 1000
e 1 436
e 1 996
e 1 70
e 1 101
e 1 841
e 1 725
e 1 276
e 1 60
e 1 221
e 2 417
e 2 116
e 2 186
e 2 684
e 2 390
e 3 256
e 3 289
e 3 239
e 4 281
e 4 402
e 4 707
e 4 625
e 4 232
e 4 142
e 4 134
e 4 814
e 4 589
e 5 724
e 5 66
e 5 640
e 5 449
e 6 584
e 6 619
e 6 532
e 6 288
e 6 514
e 7 63
e 7 329
e 7 646
e 7 710
e 7 654
e 7 573
e 7 924
e 8 806
e 8 926
e 8 779
e 9 155
e 9 163
e 9 414
e 10 477
e 10 587
e 10 770
e 10 832
e 10 887
e 11 861
e 11 840
e 11 130
e 11 382
e 11 467
e 12 432
e 12 176
e 12 823
e 13 921
e 13 548
e 13 189
e 13 746
e 13 819
e 14 838
e 14 213
e 14 538
e 14 441
e 14 236
e 14 741
e 14 311
e 15 152
e 15 266
e 15 515
e 15 271
e 16 220
e 16 387
e 16 851
e 16 982
e 16 973
e 17 389
e 17 236
e 17 579
e 17 374
e 18 54
e 18 68
e 18 37
e 18 978
e 18 783
e 18 875
e 19 124
e 19 373
e 19 781
e 19 493
e 19 116
e 20 123
e 20 411
e 20 653
e 20 693
e 21 89
e 21 329
e 21 220
e 21 684
e 21 389
e 21 272
e 21 347
e 22 315
e 22 661
e 22 844
e 22 303
e 23 688
e 23 378
e 23 146
e 24 988
e 24 85
e 24 593
e 25 500
e 25 503
e 25 841
e 25 964
e 25 756
e 27 138
e 27 941
e 27 327
e 27 285
e 28 41
e 28 607
e 28 940
e 28 528
e 28 771
e 29 250
e 29 295
e 29 554
e 30 674
e 30 693
e 30 654
e 32 333
e 32 52
e 32 699
e 32 668
e 33 442
e 33 224
e 33 752
e 33 259
e 34 62
e 34 823
e 34 324
e 34 286
e 34 389
e 35 541
e 35 993
e 35 456
e 35 956
e 37 497
e 37 194
e 37 921
e 37 117
e 37 571
e 38 460
e 38 492
e 38 681
e 40 356
e 40 389
e 40 712
e 41 362
e 41 581
e 41 507
e 41 549
e 43 574
e 43 783
e 43 243
e 46 316
e 46 611
e 46 825
e 47 964
e 47 159
e 47 880
e 48 914
e 48 178
e 48 493
e 48 954
e 48 85
e 49 874
e 49 900
e 49 290
e 49 780
e 49 507
e 49 996
e 49 312
e 50 120
e 50 966
e 50 971
e 50 412
e 50 341
e 50 186
e 52 747
e 52 515
e 54 633
e 54 698
e 54 551
e 54 138
e 54 358
e 54 304
e 54 562
e 54 156
e 54 322
e 54 501
e 54 432
e 55 796
e 55 591
e 55 921
e 55 808
e 56 681
e 56 616
e 56 625
e 60 831
e 60 692
e 61 999
e 61 791
e 61 144
e 61 695
e 61 494
e 61 619
e 62 265
e 62 69
e 62 893
e 62 910
e 63 664
e 63 979
e 63 522
e 63 367
e 63 821
e 63 375
e 63 846
e 65 251
e 65 447
e 65 88
e 65 716
e 65 531
e 65 715
e 66 676
e 66 606
e 66 706
e 66 365
e 66 629
e 68 708
e 68 799
e 69 814
e 69 96
e 69 374
e 69 810
e 69 394
e 69 250
e 70 538
e 70 411
e 70 542
e 70 935
e 70 603
e 71 842
e 71 828
e 71 934
e 72 638
e 72 335
e 72 642
e 73 321
e 73 199
e 73 372
e 75 278
e 75 198
e 75 137
e 75 707
e 75 813
e 75 629
e 76 666
e 76 491
e 76 703
e 76 815
e 76 349
e 76 177
e 78 518
e 78 203
e 78 810
e 80 842
e 80 948
e 80 688
e 80 725
e 80 826
e 82 818
e 82 962
e 82 874
e 82 271
e 82 977
e 82 883
e 83 858
e 83 755
e 83 285
e 83 759
e 84 493
e 84 402
e 84 966
e 85 513
e 85 830
e 85 935
e 88 601
e 88 715
e 88 411
e 89 123
e 89 438
e 89 568
e 89 667
e 89 489
e 89 903
e 89 661
e 91 992
e 91 402
e 91 718
e 91 359
e 91 723
e 92 214
e 92 194
e 92 997
e 93 188
e 93 654
e 93 764
e 93 493
e 94 921
e 94 811
e 94 401
e 94 118
e 94 856
e 94 100
e 96 924
e 96 822
e 96 372
e 97 582
e 97 598
e 97 352
e 97 695
e 98 560
e 98 110
e 98 574
e 98 200
e 98 482
e 98 657
e 98 353
e 98 295
e 99 308
e 99 523
e 99 804
e 99 977
e 99 174
e 99 141
e 99 406
e 99 571
e 99 256
e 100 873
e 100 991
e 100 973
e 100 334
e 101 212
e 101 105
e 101 788
e 101 248
e 102 328
e 102 325
e 102 681
e 102 455
e 102 984
e 103 497
e 103 550
e 103 123
e 105 139
e 105 361
e 105 392
e 105 605
e 106 630
e 106 958
e 106 423
e 106 292
e 106 721
e 106 664
e 108 910
e 108 452
e 108 695
e 108 811
e 109 271
e 109 688
e 109 160
e 109 232
e 109 884
e 109 178
e 110 271
e 110 420
e 110 230
e 112 791
e 112 865
e 112 393
e 112 462
e 116 261
e 116 876
e 116 681
e 117 384
e 117 463
e 118 308
e 118 404
e 118 352
e 118 600
e 119 305
e 119 677
e 119 163
e 119 211
e 120 418
e 120 836
e 121 193
e 121 557
e 121 312
e 121 978
e 122 730
e 122 440
e 122 546
e 123 546
e 123 912
e 123 554
e 124 900
e 124 216
e 124 157
e 124 923
e 125 542
e 125 349
e 125 985
e 125 682
e 128 481
e 128 568
e 128 550
e 128 911
e 128 870
e 128 552
e 128 313
e 129 812
e 129 992
e 129 827
e 129 524
e 130 607
e 130 402
e 130 538
e 130 212
e 131 421
e 131 843
e 131 912
e 131 699
e 131 380
e 131 582
e 131 993
e 132 930
e 132 482
e 132 569
e 132 323
e 132 426
e 133 195
e 133 753
e 133 960
e 133 502
e 133 605
e 134 684
e 134 791
e 135 698
e 135 384
e 135 890
e 137 890
e 137 962
e 137 702
e 138 205
e 138 861
e 138 159
e 139 346
e 139 260
e 139 954
e 139 905
e 139 466
e 139 420
e 139 664
e 139 441
e 140 613
e 140 508
e 140 421
e 141 631
e 141 692
e 142 655
e 142 956
e 142 966
e 143 252
e 143 817
e 143 682
e 143 778
e 144 229
e 144 474
e 145 759
e 145 916
e 145 844
e 145 878
e 146 657
e 146 711
e 146 864
e 146 625
e 146 330
e 146 522
e 148 496
e 148 872
e 148 616
e 150 609
e 150 771
e 150 777
e 151 868
e 151 998
e 151 608
e 152 687
e 152 253
e 153 313
e 153 382
e 153 841
e 155 811
e 155 587
e 155 324
e 155 876
e 155 439
e 155 199
e 156 998
e 156 816
e 156 908
e 156 936
e 156 729
e 157 394
e 157 214
e 157 295
e 157 641
e 157 205
e 158 330
e 158 640
e 158 985
e 158 509
e 159 623
e 159 825
e 159 961
e 159 567
e 159 500
e 160 910
e 160 575
e 160 708
e 162 811
e 162 606
e 162 180
e 162 552
e 163 819
e 163 984
e 163 998
e 163 276
e 165 458
e 165 309
e 165 269
e 165 980
e 168 976
e 168 845
e 168 760
e 168 350
e 173 663
e 173 359
e 173 529
e 174 684
e 174 425
e 176 230
e 176 242
e 176 582
e 176 700
e 176 653
e 176 711
e 177 415
e 177 828
e 177 845
e 177 896
e 177 481
e 178 617
e 178 956
e 178 890
e 180 303
e 180 520
e 180 236
e 182 233
e 182 820
e 182 244
e 184 769
e 184 259
e 184 619
e 184 444
e 184 464
e 184 387
e 186 820
e 186 662
e 186 309
e 186 950
e 186 199
e 186 515
e 186 385
e 186 924
e 187 705
e 187 351
e 187 371
e 187 831
e 188 936
e 188 877
e 188 467
e 188 577
e 188 598
e 188 333
e 188 210
e 189 815
e 189 291
e 189 425
e 190 994
e 190 672
e 190 398
e 190 297
e 191 322
e 191 642
e 191 366
e 192 464
e 192 955
e 192 597
e 192 796
e 192 502
e 192 650
e 193 393
e 193 512
e 193 301
e 193 317
e 194 630
e 194 853
e 194 514
e 195 400
e 195 313
e 195 593
e 198 221
e 198 417
e 198 569
e 198 344
e 199 641
e 199 631
e 199 250
e 200 257
e 200 729
e 200 407
e 200 587
e 201 303
e 201 567
e 201 730
e 201 494
e 201 872
e 201 661
e 203 954
e 203 493
e 203 719
e 203 701
e 204 853
e 204 325
e 204 876
e 204 856
e 205 804
e 205 563
e 205 972
e 205 463
e 205 650
e 207 620
e 207 810
e 207 764
e 210 908
e 210 303
e 210 474
e 211 523
e 211 548
e 211 447
e 212 315
e 212 549
e 212 242
e 213 233
e 213 657
e 214 840
e 214 798
e 216 701
e 216 238
e 216 471
e 217 741
e 217 316
e 217 622
e 217 745
e 217 385
e 217 746
e 218 507
e 218 836
e 218 979
e 220 313
e 221 892
e 221 582
e 221 464
e 221 994
e 221 225
e 222 483
e 222 283
e 222 889
e 224 827
e 224 711
e 225 856
e 225 807
e 226 552
e 226 465
e 226 317
e 227 764
e 227 975
e 227 500
e 227 314
e 229 304
e 229 460
e 230 487
e 230 244
e 230 629
e 232 933
e 232 359
e 232 286
e 232 724
e 232 709
e 233 648
e 233 392
e 234 526
e 234 679
e 234 902
e 235 291
e 235 996
e 235 548
e 236 612
e 236 315
e 236 986
e 236 647
e 236 292
e 237 992
e 237 816
e 237 832
e 237 945
e 237 638
e 237 384
e 237 304
e 238 350
e 238 943
e 238 664
e 238 984
e 239 266
e 239 804
e 239 796
e 242 589
e 242 680
e 242 930
e 243 742
e 243 389
e 243 600
e 244 394
e 244 406
e 244 482
e 244 495
e 246 289
e 246 449
e 246 811
e 246 646
e 246 665
e 246 395
e 248 947
e 248 916
e 249 268
e 249 811
e 249 666
e 249 846
e 250 450
e 250 741
e 250 349
e 250 929
e 250 907
e 251 314
e 251 413
e 252 254
e 252 999
e 253 940
e 253 474
e 253 891
e 253 645
e 253 885
e 253 773
e 253 452
e 253 608
e 253 577
e 253 982
e 254 963
e 254 725
e 254 285
e 256 441
e 256 322
e 256 822
e 257 848
e 257 611
e 257 441
e 257 619
e 259 765
e 259 478
e 259 735
e 259 687
e 260 276
e 260 289
e 260 723
e 260 790
e 261 557
e 261 654
e 262 438
e 262 283
e 262 964
e 262 824
e 262 338
e 264 387
e 264 854
e 264 420
e 264 993
e 264 551
e 264 313
e 265 394
e 265 605
e 265 577
e 265 884
e 266 848
e 266 815
e 266 633
e 266 975
e 266 610
e 266 934
e 266 858
e 268 987
e 268 617
e 268 826
e 269 428
e 269 544
e 269 889
e 269 960
e 270 930
e 270 558
e 270 639
e 270 459
e 270 861
e 270 911
e 271 720
e 271 642
e 272 311
e 272 502
e 272 800
e 272 509
e 273 338
e 273 553
e 273 945
e 273 548
e 276 975
e 276 356
e 276 825
e 277 418
e 277 298
e 277 455
e 277 516
e 277 781
e 277 895
e 278 626
e 278 903
e 278 850
e 281 487
e 281 298
e 282 809
e 282 992
e 282 599
e 282 531
e 283 382
e 283 799
e 283 924
e 283 638
e 285 907
e 286 843
e 286 781
e 286 745
e 288 320
e 288 829
e 288 347
e 288 810
e 288 455
e 289 429
e 290 804
e 290 503
e 290 409
e 290 943
e 291 836
e 291 492
e 291 402
e 291 840
e 292 420
e 292 688
e 292 428
e 294 979
e 294 296
e 294 720
e 295 540
e 295 911
e 295 579
e 295 722
e 296 708
e 296 384
e 296 950
e 296 935
e 296 520
e 296 607
e 297 323
e 297 548
e 297 333
e 297 430
e 297 657
e 297 975
e 298 808
e 298 541
e 298 824
e 299 853
e 299 462
e 299 880
e 299 826
e 299 382
e 299 941
e 300 869
e 300 334
e 300 668
e 300 707
e 301 553
e 301 531
e 303 934
e 303 730
e 303 662
e 303 778
e 304 874
e 304 703
e 305 436
e 305 707
e 305 398
e 305 946
e 305 639
e 306 725
e 306 729
e 306 666
e 306 652
e 308 986
e 308 612
e 308 971
e 308 560
e 308 419
e 309 900
e 309 984
e 310 350
e 310 990
e 310 356
e 310 321
e 310 378
e 310 943
e 310 500
e 311 955
e 311 316
e 311 804
e 311 987
e 311 729
e 312 883
e 312 946
e 313 591
e 313 438
e 314 892
e 314 498
e 314 363
e 315 894
e 315 871
e 316 489
e 316 752
e 316 415
e 317 403
e 317 483
e 317 900
e 317 517
e 317 412
e 317 766
e 319 503
e 319 881
e 319 335
e 320 990
e 320 672
e 320 655
e 321 934
e 321 692
e 321 646
e 322 651
e 322 567
e 322 541
e 322 482
e 322 807
e 322 509
e 323 934
e 324 859
e 324 330
e 324 460
e 324 649
e 325 421
e 327 637
e 327 789
e 327 443
e 327 702
e 327 386
e 327 963
e 328 505
e 328 735
e 329 807
e 329 800
e 329 832
e 329 462
e 330 487
e 330 579
e 330 644
e 330 588
e 333 563
e 333 650
e 334 446
e 334 742
e 334 361
e 335 910
e 335 790
e 335 514
e 335 443
e 336 358
e 336 827
e 336 992
e 336 373
e 336 661
e 338 730
e 338 364
e 338 773
e 339 809
e 339 419
e 339 817
e 339 819
e 339 650
e 340 513
e 340 610
e 340 387
e 341 450
e 341 584
e 341 681
e 341 947
e 342 907
e 342 667
e 342 382
e 342 529
e 342 507
e 344 453
e 344 429
e 344 745
e 344 686
e 345 378
e 345 566
e 345 581
e 346 450
e 346 971
e 347 806
e 347 891
e 348 745
e 348 753
e 348 853
e 348 706
e 348 364
e 349 538
e 349 995
e 349 439
e 350 389
e 350 420
e 350 646
e 350 558
e 351 447
e 351 386
e 351 908
e 351 603
e 351 482
e 352 807
e 352 406
e 352 831
e 353 650
e 353 680
e 353 885
e 353 594
e 356 626
e 356 827
e 358 419
e 358 959
e 360 715
e 360 811
e 360 372
e 361 756
e 362 649
e 362 789
e 363 526
e 363 527
e 364 976
e 364 893
e 364 827
e 364 651
e 364 964
e 364 567
e 365 377
e 365 820
e 366 493
e 366 439
e 366 663
e 366 471
e 367 756
e 367 579
e 368 491
e 368 450
e 368 532
e 368 458
e 369 971
e 369 450
e 369 728
e 369 650
e 369 675
e 371 902
e 371 631
e 372 843
e 372 498
e 372 374
e 372 482
e 372 789
e 372 563
e 373 800
e 373 644
e 373 686
e 374 976
e 374 417
e 374 874
e 374 961
e 375 727
e 375 647
e 375 978
e 375 813
e 377 830
e 377 877
e 378 769
e 378 426
e 378 873
e 380 971
e 380 907
e 380 998
e 382 403
e 383 720
e 383 962
e 383 424
e 384 421
e 384 727
e 384 556
e 385 954
e 385 890
e 386 711
e 387 517
e 387 538
e 389 945
e 389 530
e 389 957
e 390 681
e 390 756
e 390 505
e 391 676
e 391 836
e 391 574
e 392 980
e 393 566
e 394 891
e 394 557
e 395 995
e 395 437
e 395 999
e 396 650
e 396 501
e 396 916
e 397 675
e 397 403
e 397 724
e 397 662
e 398 950
e 398 782
e 398 701
e 398 601
e 400 539
e 400 789
e 401 417
e 401 813
e 401 895
e 402 443
e 402 448
e 402 425
e 402 495
e 403 501
e 403 892
e 403 528
e 403 601
e 404 759
e 404 747
e 404 438
e 404 773
e 406 512
e 406 436
e 407 530
e 407 854
e 407 542
e 409 428
e 409 996
e 411 473
e 411 419
e 412 648
e 412 502
e 413 753
e 413 823
e 414 651
e 414 462
e 414 645
e 414 877
e 414 531
e 415 916
e 415 516
e 415 523
e 417 593
e 417 548
e 417 662
e 418 569
e 419 799
e 419 474
e 419 549
e 420 554
e 420 799
e 420 698
e 421 652
e 421 615
e 423 603
e 423 921
e 424 905
e 424 436
e 425 842
e 426 800
e 426 990
e 426 438
e 426 548
e 426 824
e 427 875
e 427 943
e 427 637
e 428 700
e 428 432
e 428 829
e 429 936
e 429 983
e 430 437
e 430 798
e 430 449
e 430 502
e 432 607
e 433 527
e 433 558
e 433 501
e 433 464
e 433 840
e 436 804
e 437 885
e 437 577
e 437 750
e 437 600
e 438 961
e 438 771
e 438 616
e 438 674
e 439 741
e 439 958
e 440 957
e 440 792
e 442 497
e 442 710
e 442 626
e 442 676
e 444 553
e 444 471
e 444 748
e 446 972
e 446 993
e 447 492
e 447 993
e 447 700
e 447 813
e 447 480
e 447 569
e 448 962
e 448 491
e 448 893
e 449 526
e 449 494
e 452 727
e 452 783
e 452 993
e 452 701
e 453 870
e 453 850
e 455 695
e 456 782
e 456 473
e 456 573
e 457 911
e 457 878
e 457 699
e 457 626
e 458 986
e 458 810
e 459 864
e 459 599
e 459 903
e 459 834
e 460 711
e 460 652
e 461 491
e 461 750
e 461 868
e 462 859
e 463 959
e 465 730
e 465 654
e 466 806
e 466 865
e 466 884
e 467 902
e 467 565
e 471 985
e 471 943
e 471 831
e 473 908
e 473 816
e 474 876
e 474 498
e 477 566
e 477 718
e 478 834
e 478 575
e 480 746
e 480 657
e 480 500
e 481 737
e 482 955
e 482 800
e 482 712
e 483 872
e 483 554
e 483 492
e 487 819
e 487 853
e 487 822
e 489 737
e 489 538
e 491 936
e 491 579
e 491 601
e 492 554
e 493 923
e 493 934
e 493 672
e 495 549
e 495 574
e 496 832
e 496 637
e 496 515
e 496 817
e 497 724
e 497 952
e 498 788
e 500 654
e 500 574
e 501 562
e 502 657
e 502 811
e 502 995
e 503 517
e 503 530
e 503 638
e 503 847
e 503 883
e 505 709
e 505 940
e 507 719
e 508 724
e 508 710
e 509 717
e 509 764
e 512 927
e 513 619
e 514 999
e 514 846
e 514 699
e 514 961
e 514 566
e 516 725
e 516 565
e 516 993
e 517 856
e 517 972
e 518 813
e 518 638
e 520 829
e 520 715
e 520 575
e 521 930
e 521 870
e 521 845
e 522 896
e 523 677
e 524 863
e 524 708
e 526 841
e 527 916
e 527 955
e 527 763
e 528 611
e 529 955
e 530 581
e 530 820
e 530 594
e 530 929
e 531 848
e 531 831
e 531 820
e 531 883
e 532 667
e 532 558
e 538 809
e 539 632
e 539 818
e 539 844
e 539 606
e 540 616
e 540 993
e 542 900
e 542 991
e 544 748
e 544 893
e 544 632
e 546 633
e 546 622
e 546 644
e 546 657
e 548 741
e 548 582
e 548 883
e 548 786
e 549 859
e 550 863
e 550 827
e 551 703
e 551 781
e 553 644
e 553 667
e 554 963
e 554 642
e 556 588
e 556 600
e 556 850
e 556 573
e 556 766
e 557 720
e 558 619
e 558 763
e 560 984
e 560 901
e 560 796
e 560 875
e 562 924
e 562 927
e 563 893
e 565 876
e 565 842
e 565 997
e 567 825
e 567 723
e 567 903
e 568 816
e 569 606
e 571 819
e 573 856
e 574 810
e 575 632
e 575 876
e 575 779
e 577 877
e 577 721
e 577 737
e 579 748
e 579 935
e 581 792
e 582 991
e 584 666
e 584 648
e 588 698
e 589 620
e 591 865
e 593 850
e 593 692
e 593 911
e 593 782
e 593 851
e 593 790
e 594 987
e 594 924
e 597 948
e 597 792
e 597 650
e 597 997
e 598 878
e 599 622
e 599 818
e 599 820
e 600 883
e 600 679
e 600 652
e 601 810
e 603 649
e 605 887
e 606 724
e 607 991
e 607 783
e 607 871
e 608 884
e 609 849
e 609 914
e 609 750
e 610 838
e 610 852
e 611 847
e 611 878
e 611 637
e 612 720
e 613 641
e 613 675
e 615 849
e 615 912
e 617 647
e 617 627
e 619 779
e 620 786
e 620 663
e 622 899
e 622 991
e 623 642
e 623 945
e 625 890
e 626 933
e 626 668
e 626 639
e 627 860
e 627 760
e 629 705
e 630 705
e 631 746
e 635 778
e 635 868
e 635 830
e 636 741
e 636 877
e 636 818
e 636 838
e 636 813
e 637 917
e 637 851
e 639 769
e 640 991
e 641 783
e 644 649
e 644 952
e 644 663
e 645 741
e 646 679
e 647 926
e 650 695
e 650 847
e 650 822
e 651 679
e 652 748
e 652 961
e 653 798
e 654 983
e 655 808
e 661 885
e 662 894
e 663 927
e 664 961
e 665 828
e 665 808
e 666 904
e 666 722
e 666 750
e 667 744
e 667 727
e 668 880
e 672 846
e 674 904
e 675 780
e 675 717
e 675 936
e 676 887
e 677 842
e 677 769
e 680 997
e 681 703
e 681 957
e 681 788
e 682 789
e 682 887
e 682 718
e 684 828
e 684 827
e 684 766
e 684 841
e 686 964
e 686 973
e 686 736
e 687 894
e 687 923
e 688 901
e 688 814
e 692 763
e 693 777
e 695 827
e 695 753
e 697 719
e 697 834
e 697 805
e 697 940
e 698 702
e 700 780
e 700 895
e 700 804
e 701 814
e 702 941
e 702 904
e 705 975
e 706 887
e 707 812
e 707 786
e 708 933
e 709 756
e 710 899
e 712 943
e 715 800
e 716 874
e 716 806
e 717 986
e 717 948
e 718 971
e 718 756
e 720 910
e 720 945
e 721 914
e 722 935
e 723 979
e 724 729
e 724 957
e 725 999
e 727 973
e 727 778
e 727 822
e 728 916
e 728 838
e 729 852
e 729 935
e 729 883
e 729 777
e 729 736
e 730 926
e 735 746
e 736 991
e 736 997
e 737 999
e 737 930
e 737 843
e 742 869
e 742 959
e 744 891
e 744 941
e 745 956
e 745 960
e 745 972
e 745 978
e 746 848
e 747 927
e 747 885
e 747 880
e 748 856
e 752 755
e 752 842
e 755 987
e 756 994
e 756 788
e 760 977
e 763 880
e 763 823
e 764 964
e 764 846
e 765 998
e 765 851
e 766 827
e 766 811
e 770 947
e 770 779
e 773 993
e 777 872
e 780 890
e 781 864
e 781 927
e 783 810
e 786 800
e 786 954
e 786 903
e 790 848
e 790 889
e 792 912
e 800 957
e 800 852
e 805 952
e 805 831
e 805 860
e 806 917
e 807 991
e 808 957
e 809 849
e 812 881
e 815 840
e 815 871
e 821 958
e 821 947
e 822 895
e 823 878
e 824 929
e 824 860
e 826 972
e 827 889
e 827 948
e 828 905
e 829 966
e 831 916
e 836 933
e 836 852
e 838 896
e 841 911
e 846 860
e 849 988
e 853 956
e 854 960
e 854 958
e 858 946
e 858 881
e 859 936
e 863 997
e 864 971
e 864 988
e 869 911
e 870 954
e 872 874
e 872 983
e 873 972
e 874 980
e 880 948
e 881 903
e 884 893
e 884 994
e 885 993
e 899 988
e 901 979
e 904 985
e 908 982
e 914 946
e 917 954
e 929 959
e 946 978
e 960 966
e 963 975
e 973 982
e 986 990
